c nIsolatedPIs 0
c maxPI 32
p cnf 183 454
c gate 33 8 24 0
8 -33 0
24 -33 0
-8 -24 33 0
c gate 34 -8 -24 0
-8 -34 0
-24 -34 0
8 24 34 0
c gate 35 -33 -34 0
-33 -35 0
-34 -35 0
33 34 35 0
c gate 36 -7 23 0
-7 -36 0
23 -36 0
7 -23 36 0
c gate 37 6 -22 0
6 -37 0
-22 -37 0
-6 22 37 0
c gate 38 7 -23 0
7 -38 0
-23 -38 0
-7 23 38 0
c gate 39 -37 -38 0
-37 -39 0
-38 -39 0
37 38 39 0
c gate 40 -2 18 0
-2 -40 0
18 -40 0
2 -18 40 0
c gate 41 -1 17 0
-1 -41 0
17 -41 0
1 -17 41 0
c gate 42 -40 -41 0
-40 -42 0
-41 -42 0
40 41 42 0
c gate 43 2 -18 0
2 -43 0
-18 -43 0
-2 18 43 0
c gate 44 3 -19 0
3 -44 0
-19 -44 0
-3 19 44 0
c gate 45 -43 -44 0
-43 -45 0
-44 -45 0
43 44 45 0
c gate 46 -42 45 0
-42 -46 0
45 -46 0
42 -45 46 0
c gate 47 -4 20 0
-4 -47 0
20 -47 0
4 -20 47 0
c gate 48 -3 19 0
-3 -48 0
19 -48 0
3 -19 48 0
c gate 49 -47 -48 0
-47 -49 0
-48 -49 0
47 48 49 0
c gate 50 -46 49 0
-46 -50 0
49 -50 0
46 -49 50 0
c gate 51 5 -21 0
5 -51 0
-21 -51 0
-5 21 51 0
c gate 52 4 -20 0
4 -52 0
-20 -52 0
-4 20 52 0
c gate 53 -51 -52 0
-51 -53 0
-52 -53 0
51 52 53 0
c gate 54 -50 53 0
-50 -54 0
53 -54 0
50 -53 54 0
c gate 55 -6 22 0
-6 -55 0
22 -55 0
6 -22 55 0
c gate 56 -37 -55 0
-37 -56 0
-55 -56 0
37 55 56 0
c gate 57 -5 21 0
-5 -57 0
21 -57 0
5 -21 57 0
c gate 58 56 -57 0
56 -58 0
-57 -58 0
-56 57 58 0
c gate 59 -54 58 0
-54 -59 0
58 -59 0
54 -58 59 0
c gate 60 39 -59 0
39 -60 0
-59 -60 0
-39 59 60 0
c gate 61 -36 -60 0
-36 -61 0
-60 -61 0
36 60 61 0
c gate 62 -35 61 0
-35 -62 0
61 -62 0
35 -61 62 0
c gate 63 -36 -38 0
-36 -63 0
-38 -63 0
36 38 63 0
c gate 64 59 -63 0
59 -64 0
-63 -64 0
-59 63 64 0
c gate 65 -12 -28 0
-12 -65 0
-28 -65 0
12 28 65 0
c gate 66 12 28 0
12 -66 0
28 -66 0
-12 -28 66 0
c gate 67 -65 -66 0
-65 -67 0
-66 -67 0
65 66 67 0
c gate 68 -11 -27 0
-11 -68 0
-27 -68 0
11 27 68 0
c gate 69 11 27 0
11 -69 0
27 -69 0
-11 -27 69 0
c gate 70 -10 -26 0
-10 -70 0
-26 -70 0
10 26 70 0
c gate 71 9 25 0
9 -71 0
25 -71 0
-9 -25 71 0
c gate 72 10 26 0
10 -72 0
26 -72 0
-10 -26 72 0
c gate 73 -71 -72 0
-71 -73 0
-72 -73 0
71 72 73 0
c gate 74 2 18 0
2 -74 0
18 -74 0
-2 -18 74 0
c gate 75 1 17 0
1 -75 0
17 -75 0
-1 -17 75 0
c gate 76 -74 -75 0
-74 -76 0
-75 -76 0
74 75 76 0
c gate 77 -2 -18 0
-2 -77 0
-18 -77 0
2 18 77 0
c gate 78 -3 -19 0
-3 -78 0
-19 -78 0
3 19 78 0
c gate 79 -77 -78 0
-77 -79 0
-78 -79 0
77 78 79 0
c gate 80 -76 79 0
-76 -80 0
79 -80 0
76 -79 80 0
c gate 81 4 20 0
4 -81 0
20 -81 0
-4 -20 81 0
c gate 82 3 19 0
3 -82 0
19 -82 0
-3 -19 82 0
c gate 83 -81 -82 0
-81 -83 0
-82 -83 0
81 82 83 0
c gate 84 -80 83 0
-80 -84 0
83 -84 0
80 -83 84 0
c gate 85 -5 -21 0
-5 -85 0
-21 -85 0
5 21 85 0
c gate 86 -4 -20 0
-4 -86 0
-20 -86 0
4 20 86 0
c gate 87 -85 -86 0
-85 -87 0
-86 -87 0
85 86 87 0
c gate 88 -84 87 0
-84 -88 0
87 -88 0
84 -87 88 0
c gate 89 5 21 0
5 -89 0
21 -89 0
-5 -21 89 0
c gate 90 -56 -89 0
-56 -90 0
-89 -90 0
56 89 90 0
c gate 91 -88 90 0
-88 -91 0
90 -91 0
88 -90 91 0
c gate 92 -6 -22 0
-6 -92 0
-22 -92 0
6 22 92 0
c gate 93 -91 -92 0
-91 -93 0
-92 -93 0
91 92 93 0
c gate 94 -63 -93 0
-63 -94 0
-93 -94 0
63 93 94 0
c gate 95 35 94 0
35 -95 0
94 -95 0
-35 -94 95 0
c gate 96 -7 -23 0
-7 -96 0
-23 -96 0
7 23 96 0
c gate 97 -33 96 0
-33 -97 0
96 -97 0
33 -96 97 0
c gate 98 -9 -25 0
-9 -98 0
-25 -98 0
9 25 98 0
c gate 99 -34 -98 0
-34 -99 0
-98 -99 0
34 98 99 0
c gate 100 -97 99 0
-97 -100 0
99 -100 0
97 -99 100 0
c gate 101 -95 100 0
-95 -101 0
100 -101 0
95 -100 101 0
c gate 102 73 -101 0
73 -102 0
-101 -102 0
-73 101 102 0
c gate 103 -70 -102 0
-70 -103 0
-102 -103 0
70 102 103 0
c gate 104 -69 -103 0
-69 -104 0
-103 -104 0
69 103 104 0
c gate 105 -68 -104 0
-68 -105 0
-104 -105 0
68 104 105 0
c gate 106 67 105 0
67 -106 0
105 -106 0
-67 -105 106 0
c gate 107 -13 -29 0
-13 -107 0
-29 -107 0
13 29 107 0
c gate 108 13 29 0
13 -108 0
29 -108 0
-13 -29 108 0
c gate 109 -107 -108 0
-107 -109 0
-108 -109 0
107 108 109 0
c gate 110 -14 -30 0
-14 -110 0
-30 -110 0
14 30 110 0
c gate 111 14 30 0
14 -111 0
30 -111 0
-14 -30 111 0
c gate 112 -110 -111 0
-110 -112 0
-111 -112 0
110 111 112 0
c gate 113 109 112 0
109 -113 0
112 -113 0
-109 -112 113 0
c gate 114 -16 -32 0
-16 -114 0
-32 -114 0
16 32 114 0
c gate 115 16 32 0
16 -115 0
32 -115 0
-16 -32 115 0
c gate 116 -114 -115 0
-114 -116 0
-115 -116 0
114 115 116 0
c gate 117 15 -31 0
15 -117 0
-31 -117 0
-15 31 117 0
c gate 118 -15 31 0
-15 -118 0
31 -118 0
15 -31 118 0
c gate 119 -117 -118 0
-117 -119 0
-118 -119 0
117 118 119 0
c gate 120 116 -119 0
116 -120 0
-119 -120 0
-116 119 120 0
c gate 121 113 120 0
113 -121 0
120 -121 0
-113 -120 121 0
c gate 122 106 121 0
106 -122 0
121 -122 0
-106 -121 122 0
c gate 123 73 -100 0
73 -123 0
-100 -123 0
-73 100 123 0
c gate 124 -68 -70 0
-68 -124 0
-70 -124 0
68 70 124 0
c gate 125 -123 124 0
-123 -125 0
124 -125 0
123 -124 125 0
c gate 126 -105 -125 0
-105 -126 0
-125 -126 0
105 125 126 0
c gate 127 67 -126 0
67 -127 0
-126 -127 0
-67 126 127 0
c gate 128 -59 127 0
-59 -128 0
127 -128 0
59 -127 128 0
c gate 129 -122 128 0
-122 -129 0
128 -129 0
122 -128 129 0
c gate 130 -64 -129 0
-64 -130 0
-129 -130 0
64 129 130 0
c gate 131 -62 -130 0
-62 -131 0
-130 -131 0
62 130 131 0
c gate 132 35 39 0
35 -132 0
39 -132 0
-35 -39 132 0
c gate 133 61 132 0
61 -133 0
132 -133 0
-61 -132 133 0
c gate 134 -71 -98 0
-71 -134 0
-98 -134 0
71 98 134 0
c gate 135 -70 -72 0
-70 -135 0
-72 -135 0
70 72 135 0
c gate 136 -134 -135 0
-134 -136 0
-135 -136 0
134 135 136 0
c gate 137 62 -136 0
62 -137 0
-136 -137 0
-62 136 137 0
c gate 138 -133 -137 0
-133 -138 0
-137 -138 0
133 137 138 0
c gate 139 -131 138 0
-131 -139 0
138 -139 0
131 -138 139 0
c gate 140 -9 25 0
-9 -140 0
25 -140 0
9 -25 140 0
c gate 141 8 -24 0
8 -141 0
-24 -141 0
-8 24 141 0
c gate 142 -134 -141 0
-134 -142 0
-141 -142 0
134 141 142 0
c gate 143 -62 142 0
-62 -143 0
142 -143 0
62 -142 143 0
c gate 144 -140 -143 0
-140 -144 0
-143 -144 0
140 143 144 0
c gate 145 -68 -69 0
-68 -145 0
-69 -145 0
68 69 145 0
c gate 146 -135 145 0
-135 -146 0
145 -146 0
135 -145 146 0
c gate 147 142 146 0
142 -147 0
146 -147 0
-142 -146 147 0
c gate 148 144 147 0
144 -148 0
147 -148 0
-144 -147 148 0
c gate 149 139 -148 0
139 -149 0
-148 -149 0
-139 148 149 0
c gate 150 -10 26 0
-10 -150 0
26 -150 0
10 -26 150 0
c gate 151 144 -150 0
144 -151 0
-150 -151 0
-144 150 151 0
c gate 152 10 -26 0
10 -152 0
-26 -152 0
-10 26 152 0
c gate 153 -145 -152 0
-145 -153 0
-152 -153 0
145 152 153 0
c gate 154 -151 153 0
-151 -154 0
153 -154 0
151 -153 154 0
c gate 155 -149 -154 0
-149 -155 0
-154 -155 0
149 154 155 0
c gate 156 -67 -109 0
-67 -156 0
-109 -156 0
67 109 156 0
c gate 157 -112 -116 0
-112 -157 0
-116 -157 0
112 116 157 0
c gate 158 119 157 0
119 -158 0
157 -158 0
-119 -157 158 0
c gate 159 156 158 0
156 -159 0
158 -159 0
-156 -158 159 0
c gate 160 154 159 0
154 -160 0
159 -160 0
-154 -159 160 0
c gate 161 -155 -160 0
-155 -161 0
-160 -161 0
155 160 161 0
c gate 162 62 -161 0
62 -162 0
-161 -162 0
-62 161 162 0
c gate 163 -62 -133 0
-62 -163 0
-133 -163 0
62 133 163 0
c gate 164 -130 161 0
-130 -164 0
161 -164 0
130 -161 164 0
c gate 165 127 161 0
127 -165 0
161 -165 0
-127 -161 165 0
c gate 166 -122 165 0
-122 -166 0
165 -166 0
122 -165 166 0
c gate 167 -91 -94 0
-91 -167 0
-94 -167 0
91 94 167 0
c gate 168 -161 -167 0
-161 -168 0
-167 -168 0
161 167 168 0
c gate 169 -127 168 0
-127 -169 0
168 -169 0
127 -168 169 0
c gate 170 -122 -169 0
-122 -170 0
-169 -170 0
122 169 170 0
c gate 171 -161 -170 0
-161 -171 0
-170 -171 0
161 170 171 0
c gate 172 -166 -171 0
-166 -172 0
-171 -172 0
166 171 172 0
c gate 173 -59 172 0
-59 -173 0
172 -173 0
59 -172 173 0
c gate 174 -64 -161 0
-64 -174 0
-161 -174 0
64 161 174 0
c gate 175 -173 174 0
-173 -175 0
174 -175 0
173 -174 175 0
c gate 176 -164 -175 0
-164 -176 0
-175 -176 0
164 175 176 0
c gate 177 163 176 0
163 -177 0
176 -177 0
-163 -176 177 0
c gate 178 -133 -161 0
-133 -178 0
-161 -178 0
133 161 178 0
c gate 179 -177 178 0
-177 -179 0
178 -179 0
177 -178 179 0
c gate 180 -139 161 0
-139 -180 0
161 -180 0
139 -161 180 0
c gate 181 -62 -180 0
-62 -181 0
-180 -181 0
62 180 181 0
c gate 182 -179 181 0
-179 -182 0
181 -182 0
179 -181 182 0
c gate 183 -162 -182 0
-162 -183 0
-182 -183 0
162 182 183 0
c PO
183 0
